Version identifier: 22.1.0.0 | 2022-03-09 | 1a383f8ce
CPXPARAM_Threads                                 1
CPXPARAM_MIP_Strategy_VariableSelect             3
CPXPARAM_TimeLimit                               599.99998388400002
1 of 1 MIP starts provided solutions.
MIP start 'm1' defined initial solution with objective 3.0000.
Tried aggregator 1 time.
MIP Presolve eliminated 9 rows and 0 columns.
MIP Presolve modified 4 coefficients.
Reduced MIP has 2116 rows, 7500 columns, and 104124 nonzeros.
Reduced MIP has 7500 binaries, 0 generals, 0 SOSs, and 0 indicators.
Presolve time = 0.07 sec. (55.63 ticks)
Probing time = 0.01 sec. (6.76 ticks)
Tried aggregator 1 time.
Detecting symmetries...
Reduced MIP has 2116 rows, 7500 columns, and 104124 nonzeros.
Reduced MIP has 7500 binaries, 0 generals, 0 SOSs, and 0 indicators.
Presolve time = 0.08 sec. (59.83 ticks)
Probing time = 0.01 sec. (6.76 ticks)
Clique table members: 1194.
MIP emphasis: balance optimality and feasibility.
MIP search method: dynamic search.
Parallel mode: none, using 1 thread.
Root relaxation solution time = 1.92 sec. (2196.75 ticks)

        Nodes                                         Cuts/
   Node  Left     Objective  IInf  Best Integer    Best Bound    ItCnt     Gap

*     0+    0                            3.0000     7500.0000              --- 
      0     0      300.0000  1352        3.0000      300.0000     6024     --- 
      0     0      300.0000   534        3.0000       Cuts: 6    10528     --- 
*     0+    0                          191.0000      300.0000            57.07%
      0     0      300.0000   552      191.0000      Cuts: 27    13987   57.07%
      0     0      300.0000   676      191.0000       Cuts: 4    17269   57.07%
*     0+    0                          260.0000      300.0000            15.38%
*     0+    0                          264.0000      300.0000            13.64%
*     0+    0                          282.0000      300.0000             6.38%
      0     0        cutoff            282.0000      300.0000    17269    6.38%
Detecting symmetries...
      0     2      300.0000   298      282.0000      300.0000    17269    6.38%
Elapsed time = 73.31 sec. (85151.54 ticks, tree = 0.01 MB, solutions = 5)
      1     3      300.0000   786      282.0000      300.0000    28056    6.38%
      2     4      300.0000   732      282.0000      300.0000    33254    6.38%
      3     5      300.0000   845      282.0000      300.0000    39788    6.38%
      4     6      300.0000   737      282.0000      300.0000    39846    6.38%
      5     7      300.0000   761      282.0000      300.0000    44996    6.38%
      6     8      300.0000   736      282.0000      300.0000    45004    6.38%
      7     9      300.0000   874      282.0000      300.0000    49240    6.38%
      8    10      300.0000  1218      282.0000      300.0000    50736    6.38%
      9    11      300.0000   868      282.0000      300.0000    50779    6.38%
     10    12      300.0000   776      282.0000      300.0000    53155    6.38%
Elapsed time = 92.95 sec. (106790.38 ticks, tree = 0.13 MB, solutions = 5)
     12    14      300.0000   779      282.0000      300.0000    53242    6.38%
     13    15      300.0000   974      282.0000      300.0000    62757    6.38%
     14    16      300.0000   835      282.0000      300.0000    70355    6.38%
     15    17      300.0000  1308      282.0000      300.0000    72094    6.38%
     17    19      300.0000   749      282.0000      300.0000    90185    6.38%
     19    21      300.0000   730      282.0000      300.0000    93886    6.38%
     20    22      300.0000  1059      282.0000      300.0000   104761    6.38%
     22    24      300.0000   907      282.0000      300.0000   118207    6.38%
     24    26      300.0000   813      282.0000      300.0000   125112    6.38%
     25    27      300.0000   957      282.0000      300.0000   132602    6.38%
Elapsed time = 126.31 sec. (143498.30 ticks, tree = 0.42 MB, solutions = 5)
     26    28      300.0000   812      282.0000      300.0000   140619    6.38%
     28    30      300.0000   770      282.0000      300.0000   151907    6.38%
     29    31      299.7857   913      282.0000      300.0000   175836    6.38%
     30    32      300.0000   759      282.0000      300.0000   182818    6.38%
     31    33      300.0000   765      282.0000      300.0000   192668    6.38%
     32    34      300.0000   691      282.0000      300.0000   200492    6.38%
     33    35      299.8750   872      282.0000      300.0000   212217    6.38%
     34    36      300.0000   727      282.0000      300.0000   222813    6.38%
     35    37      300.0000   736      282.0000      300.0000   226833    6.38%
     36    38      299.8482   853      282.0000      300.0000   236214    6.38%
Elapsed time = 166.63 sec. (186350.72 ticks, tree = 0.49 MB, solutions = 5)
     37    39      300.0000   734      282.0000      300.0000   237426    6.38%
     38    40      299.7976   913      282.0000      300.0000   253180    6.38%
     40    42      300.0000   756      282.0000      300.0000   260085    6.38%
     41    43      299.8512   833      282.0000      300.0000   270820    6.38%
     43    45      300.0000   809      282.0000      300.0000   275444    6.38%
     45    47      300.0000   709      282.0000      300.0000   288222    6.38%
     46    48      300.0000   913      282.0000      300.0000   296688    6.38%
     47    49      299.7946  1035      282.0000      300.0000   300388    6.38%
     49    51      300.0000   925      282.0000      300.0000   313368    6.38%
     50    52      300.0000   868      282.0000      300.0000   318031    6.38%
Elapsed time = 232.53 sec. (254281.60 ticks, tree = 0.58 MB, solutions = 5)
     52    54      300.0000   867      282.0000      300.0000   330558    6.38%
     54    56      299.7704   948      282.0000      300.0000   351249    6.38%
     56    58      300.0000   861      282.0000      300.0000   361667    6.38%
     58    60      299.7905   863      282.0000      300.0000   384862    6.38%
     60    62      300.0000   797      282.0000      300.0000   395654    6.38%
     61    63      300.0000   793      282.0000      300.0000   405194    6.38%
     62    64      300.0000   746      282.0000      300.0000   415074    6.38%
     63    65      299.6655   832      282.0000      300.0000   433396    6.38%
     64    66      300.0000   628      282.0000      300.0000   439956    6.38%
     66    68      299.7953   815      282.0000      300.0000   478351    6.38%
Elapsed time = 263.69 sec. (283022.79 ticks, tree = 0.62 MB, solutions = 5)
     68    70      300.0000   644      282.0000      300.0000   489930    6.38%
     70    72      300.0000   635      282.0000      300.0000   499530    6.38%
     71    73      300.0000   650      282.0000      300.0000   509482    6.38%
     73    75      299.6806   685      282.0000      300.0000   524799    6.38%
     75    77      300.0000   614      282.0000      300.0000   551490    6.38%
     77    79      299.9122   884      282.0000      300.0000   568605    6.38%
     78    80      299.5634   726      282.0000      300.0000   589255    6.38%
     80    82      300.0000   610      282.0000      300.0000   602038    6.38%
     82    84      299.5303   675      282.0000      300.0000   620466    6.38%
     83    85      299.7220   759      282.0000      300.0000   646515    6.38%
Elapsed time = 288.57 sec. (305110.74 ticks, tree = 0.68 MB, solutions = 5)
     86    88      300.0000   536      282.0000      300.0000   679715    6.38%
     87    89      300.0000   542      282.0000      300.0000   701877    6.38%
     89    91      300.0000   558      282.0000      300.0000   714456    6.38%
     90    92      299.6810   775      282.0000      300.0000   733453    6.38%
     91    93      300.0000   577      282.0000      300.0000   746411    6.38%
     92    94      300.0000   550      282.0000      300.0000   754261    6.38%
     93    95      300.0000   555      282.0000      300.0000   765702    6.38%
     95    97      300.0000   552      282.0000      300.0000   788454    6.38%
     96    98      300.0000   610      282.0000      300.0000   802737    6.38%
     97    99      299.5245   659      282.0000      300.0000   826146    6.38%
Elapsed time = 309.15 sec. (322713.08 ticks, tree = 0.72 MB, solutions = 5)
    100   102      299.5030   629      282.0000      300.0000   845533    6.38%
    103   105      299.6257   679      282.0000      300.0000   874823    6.38%
    105   107      300.0000   506      282.0000      300.0000   891035    6.38%
    106   108      299.8877   788      282.0000      300.0000   924161    6.38%
    108   110      300.0000   502      282.0000      300.0000   935367    6.38%
    109   111      300.0000   519      282.0000      300.0000   957486    6.38%
    110   112      300.0000   503      282.0000      300.0000   966381    6.38%
    111   113      300.0000   576      282.0000      300.0000   986083    6.38%
    113   115      300.0000   493      282.0000      300.0000  1004321    6.38%
    115   117      299.6182   747      282.0000      300.0000  1027617    6.38%
Elapsed time = 335.48 sec. (345199.72 ticks, tree = 0.78 MB, solutions = 5)
    117   119      300.0000   496      282.0000      300.0000  1043939    6.38%
    118   120      299.5121   652      282.0000      300.0000  1062295    6.38%
    120   122      299.5281   592      282.0000      300.0000  1089231    6.38%
    122   124      300.0000   489      282.0000      300.0000  1098147    6.38%
    123   125      299.5088   613      282.0000      300.0000  1110213    6.38%
    124   126      299.6750   612      282.0000      300.0000  1135978    6.38%
    126   128      299.5154   576      282.0000      300.0000  1174628    6.38%
    129   131      300.0000   483      282.0000      300.0000  1192719    6.38%
    131   133      299.8871   613      282.0000      300.0000  1212633    6.38%
    132   134      299.5333   568      282.0000      300.0000  1228198    6.38%
Elapsed time = 357.18 sec. (363538.32 ticks, tree = 0.83 MB, solutions = 5)
    135   137      300.0000   479      282.0000      300.0000  1242949    6.38%
    137   139      299.9247   625      282.0000      300.0000  1275586    6.38%
    139   141      299.5075   515      282.0000      300.0000  1291855    6.38%
    140   142      300.0000   484      282.0000      300.0000  1294715    6.38%
    141   143      299.5111   619      282.0000      300.0000  1311637    6.38%
    143   145      299.4917   561      282.0000      300.0000  1335448    6.38%
    144   146      300.0000   518      282.0000      300.0000  1345185    6.38%
    146   148      299.9624   655      282.0000      300.0000  1379454    6.38%
    147   149      300.0000   540      282.0000      300.0000  1401212    6.38%
    153   155      300.0000   481      282.0000      300.0000  1435679    6.38%
Elapsed time = 382.70 sec. (385756.22 ticks, tree = 0.90 MB, solutions = 5)
    157   159      299.5708   557      282.0000      300.0000  1467401    6.38%
    163   165      300.0000   452      282.0000      300.0000  1510712    6.38%
    169   171      299.6686   598      282.0000      300.0000  1557602    6.38%
    176   178      300.0000   450      282.0000      300.0000  1594072    6.38%
    184   186      299.5108   517      282.0000      300.0000  1638331    6.38%
    190   192      299.5299   522      282.0000      300.0000  1683466    6.38%
    197   199      299.4909   533      282.0000      300.0000  1732164    6.38%
    202   202      300.0000   468      282.0000      300.0000  1754569    6.38%
    211   211      299.4901   521      282.0000      300.0000  1791162    6.38%
    220   220      299.9057   587      282.0000      300.0000  1823525    6.38%
Elapsed time = 437.50 sec. (433592.73 ticks, tree = 1.09 MB, solutions = 5)
    229   229      298.9231   601      282.0000      300.0000  1851174    6.38%
    239   239      299.4815   519      282.0000      300.0000  1885688    6.38%
    240   240      299.7407   569      282.0000      300.0000  1885722    6.38%
    252   252      299.3086   534      282.0000      300.0000  1906943    6.38%
    260   260      299.5882   645      282.0000      300.0000  1924817    6.38%
    274   274      299.4815   528      282.0000      300.0000  1943162    6.38%
    283   283      299.4815   532      282.0000      300.0000  1955313    6.38%
    298   298      299.4815   540      282.0000      300.0000  1974834    6.38%
    307   306      299.4815   531      282.0000      300.0000  1986274    6.38%
    323   321      299.4815   518      282.0000      300.0000  2005322    6.38%
Elapsed time = 482.82 sec. (475285.30 ticks, tree = 1.41 MB, solutions = 5)
    340   338      298.9231   493      282.0000      300.0000  2020794    6.38%
    354   352      299.4661   521      282.0000      300.0000  2041892    6.38%
    366   364      299.3519   499      282.0000      300.0000  2067811    6.38%
    381   379      299.2222   521      282.0000      300.0000  2085050    6.38%
    395   392      299.2222   497      282.0000      300.0000  2109767    6.38%
    410   403      299.2222   519      282.0000      300.0000  2132492    6.38%
    425   418      299.2222   516      282.0000      300.0000  2152190    6.38%
    439   431      299.2222   515      282.0000      300.0000  2174349    6.38%
    454   445      299.0303   466      282.0000      300.0000  2196595    6.38%
    470   459      299.1429   483      282.0000      300.0000  2218755    6.38%
Elapsed time = 527.29 sec. (516378.20 ticks, tree = 1.84 MB, solutions = 5)
    485   473      299.2222   506      282.0000      300.0000  2238429    6.38%
    501   487      299.2222   461      282.0000      300.0000  2254811    6.38%
    505   490      299.2200   431      282.0000      300.0000  2260874    6.38%
    506   491      299.8382   560      282.0000      300.0000  2267091    6.38%
    507   492      299.6875   491      282.0000      300.0000  2281970    6.38%
*   509+  492                          284.0000      300.0000             5.63%
*   509+  492                          286.0000      300.0000             4.90%
    509   494      299.3723   675      286.0000      300.0000  2312261    4.90%
    515   498      299.2683   551      286.0000      300.0000  2354521    4.90%
    525   507      299.2683   555      286.0000      300.0000  2391888    4.90%
    532   514      299.7073   514      286.0000      300.0000  2427560    4.90%
    539   521      299.7073   551      286.0000      300.0000  2464901    4.90%
Elapsed time = 590.69 sec. (572192.57 ticks, tree = 2.05 MB, solutions = 7)
    546   528      298.8000   564      286.0000      300.0000  2503446    4.90%

Clique cuts applied:  18
Zero-half cuts applied:  20

Root node processing (before b&c):
  Real time             =   73.21 sec. (85040.86 ticks)
Sequential b&c:
  Real time             =  526.80 sec. (495085.06 ticks)
                          ------------
Total (root+branch&cut) =  600.01 sec. (580125.92 ticks)
Primal:	286
Dual:	300
Status:	Feasible
Time:	600.03
Sequence:
	20
	11
	12
	5
	5
	17
	7
	12
	5
	5
	14
	9
	5
	14
	8
	20
	0
	18
	10
	12
	5
	20
	3
	20
	5
	16
	5
	19
	4
	18
	5
	17
	6
	12
	8
	18
	1
	20
	6
	12
	8
	5
	12
	8
	14
	5
	11
	12
	5
	12
	8
	7
	12
	8
	14
	5
	10
	12
	6
	14
	8
	14
	5
	12
	5
	12
	10
	12
	7
	16
	5
	18
	2
	18
	7
	17
	5
	18
	2
	21
	5
	17
	5
	18
	3
	20
	5
	17
	5
	19
	4
	18
	5
	17
	6
	20
	2
	18
	5
	15
	8
	18
	1
	18
	9
	14
	5
	18
	1
	19
	10
	12
	5
	12
	7
	20
	2
	18
	5
	13
	8
	18
	1
	20
	9
	12
	5
	18
	1
	19
	5
	14
	8
	18
	0
	20
	5
	16
	5
	19
	4
	18
	5
	16
	7
	18
	2
	20
	5
	15
	8
	12
	5
	20
	2
	20
	5
	16
	6
	20
	4
	18
	5
	12
	9
	12
	5
	20
	4
	19
	5
	12
	8
	5
	15
	10
	5
	12
	8
	20
	0
	20
	8
	12
	5
	7
	14
	5
	5
	12
	11
	5
	14
	8
	18
	0
	20
	10
	12
	5
	16
	6
	20
	2
	20
	5
	13
	5
	20
	1
	18
	9
	12
	5
	17
	5
	13
	10
	18
	1
	18
	9
	14
	5
	17
	5
	13
	10
	5
	12
	8
	7
	12
	10
	5
	12
	7
	18
	4
	18
	5
	14
	8
	20
	0
	18
	5
	12
	10
	18
	0
	23
	5
	12
	10
	18
	0
	20
	5
	16
	5
	20
	3
	18
	5
	14
	8
	18
	0
	20
	8
	14
	5
	16
	6
	18
	4
	20
	5
	13
	8
	14
	5
	12
	9
	18
